ENCUT = 600
PREC   = Accurate
LREAL  = .FALSE.
ISMEAR = -5      
SIGMA  = 0.05     
IBRION = 1       
POTIM  = 0.4     
ISIF   = 2       
NSW    = 50      
NELMIN = 4       
ALGO   = Fast
EDIFF  = 1.0E-7
EDIFFG = -5.0E-4
LMAXMIX = 4
NFREE   = 10
LPLANE = .TRUE.
NCORE   = 8
NSIM    = 2
ISTART =  1
ICHARGE = 0