# Generated by cif2cell 1.2.11.
ENCUT = 324.4275
#NBANDS = 27
PREC = Accurate
LREAL = Auto
ISMEAR = 0
SIGMA = 0.1