Generated by cif2cell 1.2.11.  :  Failed to get author information, No journal information. Species order: K Br 
   6.703076
  0.000000000000000   0.500000000000000   0.500000000000000
  0.500000000000000   0.000000000000000   0.500000000000000
  0.500000000000000   0.500000000000000   0.000000000000000
   1   1
Direct
  0.000000000000000   0.000000000000000   0.000000000000000 
  0.500000000000000   0.500000000000000   0.500000000000000 
